1000
[150,151,152,153,155,156,157,158,159,160,161,162,163,164,165,166,167,168,169,170,171,172,173,174,175,176,177,179,180,181,182,183,184,185,186,187,188,189,190,191,192,193,194,195,196,197,198,199,200]
[1,2,4,2,1,3,1,3,1,1,4,1,1,1,3,2,3,2,2,1,2,3,3,4,5,2,3,1,1,1,5,4,2,1,3,2,2,2,3,2,1,2,4,5,5,3,2,2,6]
